nohup: ignoring input
original problem has 11923 variables (11923 bin, 0 int, 0 impl, 0 cont) and 15151 constraints
original problem has 1863 variables (1863 bin, 0 int, 0 impl, 0 cont) and 2212 constraints
original problem has 1031 variables (1031 bin, 0 int, 0 impl, 0 cont) and 1176 constraints
original problem has 2799 variables (2799 bin, 0 int, 0 impl, 0 cont) and 3420 constraints
original problem has 945 variables (945 bin, 0 int, 0 impl, 0 cont) and 1099 constraints
original problem has 8065 variables (8065 bin, 0 int, 0 impl, 0 cont) and 10215 constraints
original problem has 575 variables (575 bin, 0 int, 0 impl, 0 cont) and 615 constraints
original problem has 14034 variables (14034 bin, 0 int, 0 impl, 0 cont) and 17998 constraints
original problem has 5012 variables (5012 bin, 0 int, 0 impl, 0 cont) and 6317 constraints
original problem has 9987 variables (9987 bin, 0 int, 0 impl, 0 cont) and 12702 constraints
original problem has 1894 variables (1894 bin, 0 int, 0 impl, 0 cont) and 2223 constraints
original problem has 1678 variables (1678 bin, 0 int, 0 impl, 0 cont) and 2004 constraints
original problem has 1821 variables (1821 bin, 0 int, 0 impl, 0 cont) and 2155 constraints
original problem has 3836 variables (3836 bin, 0 int, 0 impl, 0 cont) and 4681 constraints
original problem has 1775 variables (1775 bin, 0 int, 0 impl, 0 cont) and 2106 constraints
original problem has 14328 variables (14328 bin, 0 int, 0 impl, 0 cont) and 18328 constraints
original problem has 1733 variables (1733 bin, 0 int, 0 impl, 0 cont) and 2056 constraints
original problem has 10044 variables (10044 bin, 0 int, 0 impl, 0 cont) and 12715 constraints
original problem has 1052 variables (1052 bin, 0 int, 0 impl, 0 cont) and 1208 constraints
original problem has 5042 variables (5042 bin, 0 int, 0 impl, 0 cont) and 6253 constraints
original problem has 10016 variables (10016 bin, 0 int, 0 impl, 0 cont) and 12694 constraints
original problem has 490 variables (490 bin, 0 int, 0 impl, 0 cont) and 518 constraints
original problem has 3701 variables (3701 bin, 0 int, 0 impl, 0 cont) and 4554 constraints
original problem has 3824 variables (3824 bin, 0 int, 0 impl, 0 cont) and 4661 constraints
original problem has 1094 variables (1094 bin, 0 int, 0 impl, 0 cont) and 1241 constraints
original problem has 2707 variables (2707 bin, 0 int, 0 impl, 0 cont) and 3277 constraints
original problem has 999 variables (999 bin, 0 int, 0 impl, 0 cont) and 1159 constraints
original problem has 3938 variables (3938 bin, 0 int, 0 impl, 0 cont) and 4788 constraints
original problem has 4955 variables (4955 bin, 0 int, 0 impl, 0 cont) and 6115 constraints
original problem has 10027 variables (10027 bin, 0 int, 0 impl, 0 cont) and 12720 constraints
original problem has 8136 variables (8136 bin, 0 int, 0 impl, 0 cont) and 10343 constraints
original problem has 1743 variables (1743 bin, 0 int, 0 impl, 0 cont) and 2015 constraints
original problem has 3778 variables (3778 bin, 0 int, 0 impl, 0 cont) and 4607 constraints
original problem has 4950 variables (4950 bin, 0 int, 0 impl, 0 cont) and 6158 constraints
original problem has 5190 variables (5190 bin, 0 int, 0 impl, 0 cont) and 6411 constraints
original problem has 11923 variables (11923 bin, 0 int, 0 impl, 0 cont) and 15151 constraints
original problem has 1863 variables (1863 bin, 0 int, 0 impl, 0 cont) and 2212 constraints
original problem has 1031 variables (1031 bin, 0 int, 0 impl, 0 cont) and 1176 constraints
original problem has 2799 variables (2799 bin, 0 int, 0 impl, 0 cont) and 3420 constraints
original problem has 945 variables (945 bin, 0 int, 0 impl, 0 cont) and 1099 constraints
original problem has 8065 variables (8065 bin, 0 int, 0 impl, 0 cont) and 10215 constraints
original problem has 575 variables (575 bin, 0 int, 0 impl, 0 cont) and 615 constraints
original problem has 14034 variables (14034 bin, 0 int, 0 impl, 0 cont) and 17998 constraints
original problem has 5012 variables (5012 bin, 0 int, 0 impl, 0 cont) and 6317 constraints
original problem has 9987 variables (9987 bin, 0 int, 0 impl, 0 cont) and 12702 constraints
original problem has 1894 variables (1894 bin, 0 int, 0 impl, 0 cont) and 2223 constraints
original problem has 1678 variables (1678 bin, 0 int, 0 impl, 0 cont) and 2004 constraints
original problem has 1821 variables (1821 bin, 0 int, 0 impl, 0 cont) and 2155 constraints
original problem has 3836 variables (3836 bin, 0 int, 0 impl, 0 cont) and 4681 constraints
original problem has 1775 variables (1775 bin, 0 int, 0 impl, 0 cont) and 2106 constraints
original problem has 14328 variables (14328 bin, 0 int, 0 impl, 0 cont) and 18328 constraints
original problem has 1733 variables (1733 bin, 0 int, 0 impl, 0 cont) and 2056 constraints
original problem has 10044 variables (10044 bin, 0 int, 0 impl, 0 cont) and 12715 constraints
original problem has 1052 variables (1052 bin, 0 int, 0 impl, 0 cont) and 1208 constraints
original problem has 5042 variables (5042 bin, 0 int, 0 impl, 0 cont) and 6253 constraints
original problem has 10016 variables (10016 bin, 0 int, 0 impl, 0 cont) and 12694 constraints
original problem has 490 variables (490 bin, 0 int, 0 impl, 0 cont) and 518 constraints
original problem has 3701 variables (3701 bin, 0 int, 0 impl, 0 cont) and 4554 constraints
original problem has 3824 variables (3824 bin, 0 int, 0 impl, 0 cont) and 4661 constraints
original problem has 1094 variables (1094 bin, 0 int, 0 impl, 0 cont) and 1241 constraints
original problem has 2707 variables (2707 bin, 0 int, 0 impl, 0 cont) and 3277 constraints
original problem has 999 variables (999 bin, 0 int, 0 impl, 0 cont) and 1159 constraints
original problem has 3938 variables (3938 bin, 0 int, 0 impl, 0 cont) and 4788 constraints
original problem has 4955 variables (4955 bin, 0 int, 0 impl, 0 cont) and 6115 constraints
original problem has 10027 variables (10027 bin, 0 int, 0 impl, 0 cont) and 12720 constraints
original problem has 8136 variables (8136 bin, 0 int, 0 impl, 0 cont) and 10343 constraints
original problem has 1743 variables (1743 bin, 0 int, 0 impl, 0 cont) and 2015 constraints
original problem has 3778 variables (3778 bin, 0 int, 0 impl, 0 cont) and 4607 constraints
original problem has 4950 variables (4950 bin, 0 int, 0 impl, 0 cont) and 6158 constraints
original problem has 5190 variables (5190 bin, 0 int, 0 impl, 0 cont) and 6411 constraints
original problem has 3648 variables (192 bin, 0 int, 0 impl, 3456 cont) and 3312 constraints
original problem has 842 variables (421 bin, 0 int, 0 impl, 421 cont) and 479 constraints
original problem has 2728 variables (1364 bin, 0 int, 0 impl, 1364 cont) and 1442 constraints
original problem has 8904 variables (8904 bin, 0 int, 0 impl, 0 cont) and 1069 constraints
original problem has 7195 variables (7195 bin, 0 int, 0 impl, 0 cont) and 714 constraints
original problem has 6000 variables (6000 bin, 0 int, 0 impl, 0 cont) and 2171 constraints
original problem has 13873 variables (552 bin, 0 int, 0 impl, 13321 cont) and 3215 constraints
original problem has 521 variables (56 bin, 0 int, 0 impl, 465 cont) and 688 constraints
original problem has 67732 variables (67732 bin, 0 int, 0 impl, 0 cont) and 656 constraints
original problem has 63009 variables (63009 bin, 0 int, 0 impl, 0 cont) and 507 constraints
original problem has 1298 variables (1254 bin, 0 int, 0 impl, 44 cont) and 353 constraints
original problem has 322 variables (302 bin, 0 int, 0 impl, 20 cont) and 394 constraints
original problem has 2993 variables (2993 bin, 0 int, 0 impl, 0 cont) and 102 constraints
original problem has 1156 variables (1089 bin, 0 int, 0 impl, 67 cont) and 2178 constraints
original problem has 260 variables (259 bin, 0 int, 0 impl, 1 cont) and 224 constraints
original problem has 5325 variables (5323 bin, 0 int, 0 impl, 2 cont) and 3411 constraints
original problem has 10958 variables (96 bin, 0 int, 0 impl, 10862 cont) and 4480 constraints
original problem has 5174 variables (2349 bin, 0 int, 0 impl, 2825 cont) and 26509 constraints
original problem has 6621 variables (6620 bin, 0 int, 0 impl, 1 cont) and 721 constraints
original problem has 3648 variables (192 bin, 0 int, 0 impl, 3456 cont) and 3312 constraints
/home/liudefen/projects/ML4LocalBranch_extend/execute_heuristics.py:741: RuntimeWarning: invalid value encountered in double_scalars
  primal_int_reinforce_ave = primal_int_reinforces.sum() / len(
/home/liudefen/projects/ML4LocalBranch_extend/execute_heuristics.py:753: RuntimeWarning: invalid value encountered in double_scalars
  primal_gap_final_reinforce_ave = primal_gap_final_reinforces.sum() / len(
/home/liudefen/projects/ML4LocalBranch_extend/execute_heuristics.py:741: RuntimeWarning: invalid value encountered in double_scalars
  primal_int_reinforce_ave = primal_int_reinforces.sum() / len(
/home/liudefen/projects/ML4LocalBranch_extend/execute_heuristics.py:753: RuntimeWarning: invalid value encountered in double_scalars
  primal_gap_final_reinforce_ave = primal_gap_final_reinforces.sum() / len(
/home/liudefen/projects/ML4LocalBranch_extend/execute_heuristics.py:741: RuntimeWarning: invalid value encountered in double_scalars
  primal_int_reinforce_ave = primal_int_reinforces.sum() / len(
/home/liudefen/projects/ML4LocalBranch_extend/execute_heuristics.py:753: RuntimeWarning: invalid value encountered in double_scalars
  primal_gap_final_reinforce_ave = primal_gap_final_reinforces.sum() / len(
generalized_independentset-small
firstsol
symmetric
seed: 0
cpu
generalized_independentset
firstsolSolution
scip-baseline primal integral:  30.13688405455404
localbranch primal integral:  68.32026051640021
lns-random primal integral:  65.2566019501461
lns_guided_by_lblp primal integral:  56.69915102595968
lns_guided_by_lblpmcts primal integral:  55.46972275221919
rl primal integral:  nan


scip-baseline primal gap:  0.0
localbranch primal gap:  0.3146900830907379
lns-random primal gap:  0.24530370753485817
lns_guided_by_lblp primal gap:  0.24451817291766065
lns_guided_by_lblpmcts primal gap:  0.23213029558962772
rl primal gap:  nan
seed mcts:  0
generalized_independentset-small
rootsol
symmetric
seed: 0
cpu
generalized_independentset
rootsolSolution
scip-baseline primal integral:  29.823599537575422
localbranch primal integral:  67.10195644036921
lns-random primal integral:  60.084694500165874
lns_guided_by_lblp primal integral:  53.654633483685835
lns_guided_by_lblpmcts primal integral:  52.64708771611659
rl primal integral:  nan


scip-baseline primal gap:  0.0
localbranch primal gap:  0.2835173236971722
lns-random primal gap:  0.2987450296781427
lns_guided_by_lblp primal gap:  0.18811308082351308
lns_guided_by_lblpmcts primal gap:  0.22175441208412658
rl primal gap:  nan
seed mcts:  0
miplib_39binary-small
firstsol
symmetric
seed: 0
cpu
miplib_39binary
firstsolSolution
scip-baseline primal integral:  56.49296747044755
localbranch primal integral:  58.00119042954003
lns-random primal integral:  47.632294537118696
lns_guided_by_lblp primal integral:  43.174470559316646
lns_guided_by_lblpmcts primal integral:  44.99637596244751
rl primal integral:  nan


scip-baseline primal gap:  8.774377580042612
localbranch primal gap:  9.39635740085127
lns-random primal gap:  1.2942875794519886
lns_guided_by_lblp primal gap:  1.0302419842421842
lns_guided_by_lblpmcts primal gap:  0.4389611463251526
rl primal gap:  nan
seed mcts:  0
miplib_39binary-small
rootsol
symmetric
seed: 0
cpu
Traceback (most recent call last):
  File "compute_evaluation_results_scip.py", line 101, in <module>
    run_localbranch.primal_integral_03(
  File "/home/liudefen/projects/ML4LocalBranch_extend/execute_heuristics.py", line 536, in primal_integral_03
    with gzip.open(filename, 'rb') as f:
  File "/home/liudefen/opt/python3.8.0/lib/python3.8/gzip.py", line 58, in open
    binary_file = GzipFile(filename, gz_mode, compresslevel)
  File "/home/liudefen/opt/python3.8.0/lib/python3.8/gzip.py", line 173, in __init__
    fileobj = self.myfileobj = builtins.open(filename, mode or 'rb')
FileNotFoundError: [Errno 2] No such file or directory: './result/generated_instances/miplib_39binary/-small/rootsol/scip/heuristic_mode/lb-from-rootsol-t_total600s-t_node3s-small_lb_k0_rl/seed0/lb-test-miplib_39binary-0_transformed_a1c1s1.pkl'
